Name:		mgval_0.50_7C
Optimal value:	-1
#Vehicles:	9
Capacity:	65
Depot Node:	1
#Nodes:		40
#Edges:		28
#Arcs:		62
#Required N:	29
#Required E:	14
#Required A:	31

ReN.	DEMAND	S. COST
N2	1	1
N3	8	8
N4	4	4
N5	3	3
N6	15	15
N8	6	6
N9	3	3
N11	22	22
N12	18	18
N13	14	14
N16	8	8
N17	6	6
N18	17	17
N21	3	3
N23	7	7
N26	16	16
N27	14	14
N28	13	13
N29	21	21
N30	5	5
N31	7	7
N32	20	20
N33	16	16
N35	12	12
N36	6	6
N37	7	7
N38	2	2
N39	3	3
N40	5	5

ReE.	FROM N.	TO N.	T. COST	DEMAND	S. COST
E15	8	14	7	10	10
E16	31	38	4	9	9
E17	1	10	8	12	12
E18	22	25	1	3	3
E19	2	36	3	12	12
E20	7	13	1	3	3
E21	1	35	4	12	12
E22	24	25	2	5	5
E23	35	36	6	14	14
E24	20	23	3	8	8
E25	26	27	4	8	8
E26	18	22	6	13	13
E27	14	15	4	7	7
E28	33	34	3	8	8

EDGE	FROM N.	TO N.	T. COST
NrE1	27	34	3
NrE2	29	30	3
NrE3	12	17	4
NrE4	13	19	6
NrE5	11	16	3
NrE6	1	6	3
NrE7	26	34	5
NrE8	1	33	4
NrE9	4	38	3
NrE10	32	39	2
NrE11	3	7	2
NrE12	23	24	2
NrE13	18	19	4
NrE14	29	36	4

ReA.	FROM N.	TO N.	T. COST	DEMAND	S. COST
A32	1	8	4	9	9
A33	15	16	3	4	4
A34	7	6	4	4	4
A35	11	12	7	4	4
A36	1	40	4	5	5
A37	38	39	7	4	4
A38	26	33	5	7	7
A39	2	1	2	2	2
A40	2	6	2	4	4
A41	37	3	4	3	3
A42	37	38	2	2	2
A43	21	24	3	3	3
A44	8	40	5	8	8
A45	9	8	5	6	6
A46	2	3	5	9	9
A47	22	21	1	2	2
A48	15	9	2	9	9
A49	39	38	7	5	5
A50	12	11	7	5	5
A51	31	30	3	5	5
A52	24	21	3	3	3
A53	4	3	2	3	3
A54	6	12	2	2	2
A55	16	15	3	4	4
A56	20	17	6	12	12
A57	34	35	6	4	4
A58	5	4	3	7	7
A59	21	22	1	2	2
A60	18	17	5	8	8
A61	37	30	3	5	5
A62	10	9	2	3	3

ARC	FROM N.	TO N.	T. COST
NrA1	31	37	5
NrA2	37	36	4
NrA3	3	4	2
NrA4	32	31	5
NrA5	39	5	2
NrA6	36	37	4
NrA7	11	1	3
NrA8	35	34	6
NrA9	3	37	4
NrA10	27	28	3
NrA11	40	1	4
NrA12	33	26	5
NrA13	9	10	2
NrA14	12	13	6
NrA15	16	10	4
NrA16	18	13	2
NrA17	5	39	2
NrA18	1	11	3
NrA19	1	2	2
NrA20	28	27	3
NrA21	6	2	2
NrA22	21	20	2
NrA23	28	35	10
NrA24	35	28	10
NrA25	38	37	2
NrA26	30	31	3
NrA27	6	7	4
NrA28	8	9	5
NrA29	13	18	2
NrA30	12	6	2
NrA31	17	13	2
